
Gurobi 9.1.2 (win64) logging started Tue Dec  7 09:43:37 2021

Gurobi Optimizer version 9.1.2 build v9.1.2rc0 (win64)
Thread count: 8 physical cores, 8 logical processors, using up to 8 threads
Optimize a model with 1 rows, 77 columns and 76 nonzeros
Model fingerprint: 0xe15975ae
Variable types: 1 continuous, 76 integer (76 binary)
Coefficient statistics:
  Matrix range     [1e+00, 1e+01]
  Objective range  [1e+00, 1e+00]
  Bounds range     [7e+01, 7e+01]
  RHS range        [1e+01, 1e+01]
Presolve time: 0.00s
Presolved: 1 rows, 77 columns, 76 nonzeros
Variable types: 1 continuous, 76 integer (76 binary)

Root simplex log...

Iteration    Objective       Primal Inf.    Dual Inf.      Time
       0   -6.7038445e+01   1.852729e-01   0.000000e+00     15s
       3   -6.7038445e+01   0.000000e+00   0.000000e+00     15s

Root relaxation: objective -6.703844e+01, 3 iterations, 0.00 seconds

    Nodes    |    Current Node    |     Objective Bounds      |     Work
 Expl Unexpl |  Obj  Depth IntInf | Incumbent    BestBd   Gap | It/Node Time

     0     0  -56.45436    0    2          -  -56.45436      -     -   15s
H    0     0                       0.4727564  -56.45436      -     -   15s
H    0     0                      -0.2006595  -56.45436      -     -   16s
     0     0  -54.14577    0    4   -0.20066  -54.14577      -     -   16s
     0     0  -51.80467    0    7   -0.20066  -51.80467      -     -   17s
     0     0  -50.80463    0    8   -0.20066  -50.80463      -     -   17s
H    0     0                      -0.2006595  -50.80463      -     -   18s
     0     0  -50.68124    0    8   -0.20066  -50.68124      -     -   18s
     0     0  -47.25726    0    9   -0.20066  -47.25726      -     -   18s
     0     0  -45.80665    0    9   -0.20066  -45.80665      -     -   18s
     0     0  -45.68353    0    8   -0.20066  -45.68353      -     -   18s
     0     0  -45.64631    0   10   -0.20066  -45.64631      -     -   18s
     0     0  -45.64559    0   10   -0.20066  -45.64559      -     -   18s
     0     0  -44.32214    0    6   -0.20066  -44.32214      -     -   18s
     0     0  -43.75743    0    7   -0.20066  -43.75743      -     -   18s
     0     0  -43.66641    0    7   -0.20066  -43.66641      -     -   18s
     0     0  -43.65513    0    7   -0.20066  -43.65513      -     -   18s
     0     0  -43.45334    0    6   -0.20066  -43.45334      -     -   18s
     0     0  -42.82557    0    7   -0.20066  -42.82557      -     -   18s
     0     0  -42.82036    0    7   -0.20066  -42.82036      -     -   18s
     0     0  -42.65467    0    7   -0.20066  -42.65467      -     -   18s
     0     0  -42.61690    0    7   -0.20066  -42.61690      -     -   18s
     0     0  -42.37867    0    7   -0.20066  -42.37867      -     -   18s
     0     0  -42.28475    0    9   -0.20066  -42.28475      -     -   18s
     0     0  -42.28475    0    9   -0.20066  -42.28475      -     -   18s
     0     2  -42.28475    0    9   -0.20066  -42.28475      -     -   18s

Cutting planes:
  MIR: 9
  Relax-and-lift: 2
  Lazy constraints: 13

Explored 17 nodes (147 simplex iterations) in 18.47 seconds
Thread count was 8 (of 8 available processors)

Solution count 2: -0.200659 0.472756 

Optimal solution found (tolerance 1.00e-04)
Best objective -2.006594506665e-01, best bound -2.006594506665e-01, gap 0.0000%

User-callback calls 216, time in user-callback 22.24 sec
